%chk=calculation/no_transfer_pubchem_sampling_3_b3lyp/113732291_rwf.chk
%rwf=calculation/no_transfer_pubchem_sampling_3_b3lyp/113732291_rwf.rwf
%nprocshared=14
%mem=3GB
#p b3lyp/6-31g(d) 6D 10F nosymm GFInput td=(50-50,nstate=2) SCF=XQC 

Gaussian input prepared by ASE

0 1
C                -1.0126681438       -1.5453984951        2.2411216510
C                -1.3699213662       -0.6699264494        1.0623516481
C                -2.6905350919       -0.6522005818        0.6038451251
C                -3.0870340973        0.1606669983       -0.4601440554
C                -4.5097961472        0.1093211574       -0.9502350781
F                -5.3793216334       -0.1560765780        0.0491964302
F                -4.6778992475       -0.8575114693       -1.8834795356
F                -4.8880552258        1.2745887229       -1.5202010281
C                -2.1559974953        0.9749703206       -1.1033652906
C                -0.8305067843        0.9490974460       -0.6797219701
C                -0.4227499125        0.1395934356        0.3911737688
C                 1.0009298835        0.2228863164        0.8752070769
O                 1.2386334054        0.2622508862        2.0767491034
C                 2.1255174459        0.2718942097       -0.1156865170
C                 3.3621333838        0.7741802886        0.3223675733
C                 4.4550546932        0.8051010665       -0.5375204533
C                 4.3331683883        0.3140801580       -1.8414779372
C                 3.1146430192       -0.2063500723       -2.2801522166
C                 2.0129773559       -0.2233383784       -1.4243606505
H                -0.8370484917       -0.9417776947        3.1364878324
H                -0.0935416222       -2.1134906124        2.0672748441
H                -1.8213427248       -2.2526535553        2.4491071394
H                -3.4294423202       -1.2758798597        1.0975583517
H                -2.4619611748        1.6202429965       -1.9197061709
H                -0.1015020468        1.5833996436       -1.1740580617
H                 3.4406547945        1.1337593579        1.3431881289
H                 5.4043564743        1.2066560772       -0.1937608638
H                 5.1884333517        0.3333034039       -2.5117236640
H                 3.0212735194       -0.6015337564       -3.2878977187
H                 1.0715488105       -0.6398549827       -1.7678214618



