%chk=./calculation/no_transfer_pubchem_sampling_3_b3lyp/121018135.chk
%nprocshared=7
%mem=6GB
#p b3lyp/6-31g(d) opt SCF=XQC 

Gaussian input prepared by ASE

0 1
C                 7.2000050728        0.7423651681       -2.0572788214
O                 6.8070676715        0.6396439437       -0.7096012195
C                 5.5899569287        0.1285618638       -0.4238976958
C                 4.6533304247       -0.3145488323       -1.3532866578
C                 3.4271205932       -0.8119938444       -0.9455807531
C                 3.1003216210       -0.8905679584        0.4015522834
C                 1.8106650642       -1.4398557086        0.9086171073
O                 1.7116660185       -1.9773410693        1.9935472267
N                 0.7535292860       -1.2983203616        0.0677242360
C                -0.5773962540       -1.7151272815        0.4431458928
C                -1.4957903792       -0.5474939125        0.6868862462
C                -1.0579357756        0.5622919602        1.4020142748
C                -1.9494332440        1.6016370814        1.6143400991
N                -3.1889804326        1.6017990546        1.1675372452
C                -3.6195073309        0.5518443491        0.4713110803
C                -5.0118296431        0.6168660501        0.0027434996
C                -5.4665715582       -0.0880037921       -1.1102966874
C                -6.7974601885        0.0344932880       -1.4745026688
N                -7.6690373442        0.7861887717       -0.8252393813
C                -7.2371035797        1.4640847415        0.2256884252
C                -5.9306160753        1.4192317878        0.6792704284
C                -2.8000679247       -0.5475784409        0.2143707426
C                 4.0379000840       -0.4742773710        1.3461612613
C                 5.2467945992        0.0306481693        0.9337451303
F                 6.1377917315        0.4450356694        1.8538834370
H                 6.5328343578        1.4026304723       -2.6202356131
H                 7.2370436914       -0.2392449143       -2.5397819671
H                 8.1997540470        1.1720734711       -2.0371727822
H                 4.8777095510       -0.2777998806       -2.4073151237
H                 2.7422806061       -1.1698969131       -1.7001098147
H                 0.8469595212       -0.7348879888       -0.7614139565
H                -0.4615167722       -2.2895155311        1.3696757110
H                -0.9926195179       -2.3709238514       -0.3297179238
H                -0.0535694152        0.6031220103        1.7939154684
H                -1.6566336190        2.4811387054        2.1729559566
H                -4.8010282416       -0.7026462865       -1.6965543258
H                -7.1884025329       -0.4963287637       -2.3332413225
H                -7.9804683453        2.0718392118        0.7250068435
H                -5.6087463434        1.9860698842        1.5375091722
H                -3.1794485286       -1.4022183786       -0.3248983588
H                 3.8114321765       -0.5529955731        2.3977993055



