%chk=calculation/no_transfer_pubchem_sampling_3_b3lyp/137135225_rwf.chk
%rwf=calculation/no_transfer_pubchem_sampling_3_b3lyp/137135225_rwf.rwf
%nprocshared=14
%mem=3GB
#p b3lyp/6-31g(d) 6D 10F nosymm GFInput td=(50-50,nstate=2) SCF=XQC 

Gaussian input prepared by ASE

0 1
O                 5.9517162309        0.9977432382       -1.5183249122
C                 6.6034915364        0.7802205084       -0.5050352905
N                 6.1000471654        0.0860453075        0.5799876747
C                 4.8261048639       -0.4884172833        0.7408391271
C                 4.5869001886       -1.2379255573        1.9036801772
N                 3.4250915857       -1.8253151150        2.1777157151
C                 2.4292234441       -1.6934725568        1.2965771655
C                 2.5490799140       -0.9669183797        0.0996821700
C                 1.4359167973       -0.8677529112       -0.8789481700
C                 1.7118968943       -0.9325951136       -2.2736502882
C                 0.7337573097       -0.8308158916       -3.2437443012
C                -0.5836581745       -0.6569770082       -2.7950766213
N                -1.7624037701       -0.5245495467       -3.4763097869
N                -2.8257780781       -0.3742196699       -2.6603143048
C                -2.3529344645       -0.4072822911       -1.4164130678
C                -3.3066634255       -0.2731415716       -0.3252007385
N                -3.0583491381       -0.2966770868        0.9651241817
C                -4.2927362121       -0.1435029287        1.5656370972
N                -4.5211253493       -0.1315003758        2.8826863124
C                -5.8030203359        0.0007012206        3.2305782755
C                -6.8749178749        0.1227357466        2.3292523968
C                -6.6578201795        0.1249568919        0.9446263211
C                -7.7589564889        0.2572530875       -0.0360245000
C                -7.6258639164        1.0345165508       -1.1973959226
C                -8.6979803411        1.1245067965       -2.0843191663
N                -9.8719741008        0.5069195337       -1.9051720409
C                -9.9972955805       -0.2302645200       -0.7936996404
C                -8.9902565302       -0.3862604866        0.1569260942
C                -5.3128918803       -0.0153432690        0.5794111985
N                -4.6483319464       -0.1009647752       -0.6211512401
C                -0.9250603285       -0.5869219413       -1.4216961318
C                 0.1126760228       -0.6912988244       -0.4793926068
F                -0.1807627723       -0.6031076982        0.8234668428
C                 3.7779131945       -0.3511889555       -0.1751609972
C                 8.0330485865        1.2800230441       -0.3496177997
C                 9.0934553221        0.2791046436        0.2205150441
C                 9.1541273068        1.0867304134        1.5470385958
C                 8.3075920785        2.2087289353        0.8846188406
H                 6.7278731639       -0.0575649716        1.3601144791
H                 5.3800909052       -1.3629541894        2.6436701282
H                 1.4988615841       -2.1920139835        1.5494086961
H                 2.7421988488       -1.0847103792       -2.5792823748
H                 0.9765037313       -0.8904958730       -4.2996667680
H                -1.9101147474       -0.5277611332       -4.4739765941
H                -6.0073274678        0.0159930577        4.2996246803
H                -7.8815923127        0.2474525310        2.7161617136
H                -6.7154663480        1.5945994130       -1.3910375900
H                -8.6092495312        1.7304949486       -2.9847668264
H               -10.9552619733       -0.7297808336       -0.6581016414
H                -9.1523677436       -1.0177668865        1.0250742246
H                -5.0305572104       -0.1081836400       -1.5561221315
H                 3.9279686105        0.2368543942       -1.0695579481
H                 8.2875271506        1.7183989797       -1.3158017300
H                10.0283633981        0.3184040239       -0.3454385458
H                 8.7873473673       -0.7699958749        0.2885452643
H                10.1510335160        1.3718233531        1.8949895061
H                 8.6451745621        0.5948153944        2.3848814935
H                 8.8988802175        3.0857067595        0.6070041894
H                 7.4268557257        2.5529177492        1.4353270720



