%chk=calculation/no_transfer_pubchem_sampling_3_b3lyp/157170558_rwf.chk
%rwf=calculation/no_transfer_pubchem_sampling_3_b3lyp/157170558_rwf.rwf
%nprocshared=14
%mem=3GB
#p b3lyp/6-31g(d) 6D 10F nosymm GFInput td=(50-50,nstate=2) SCF=XQC 

Gaussian input prepared by ASE

0 1
C                -1.9560120164        2.5537899104       -1.6541263941
C                -3.2835069633        2.2671500421       -0.9413160803
C                -4.4751703356        2.3396750429       -1.9251931040
C                -5.7317015210        1.6538643135       -1.3751149337
C                -5.6277775222        0.1125541678       -1.3811451930
C                -6.6339295613       -0.5909882184       -0.5046249916
C                -7.4771070915       -1.5616648641       -1.0594330391
C                -8.4356155150       -2.2076651411       -0.2777203385
C                -8.5576197655       -1.8958741318        1.0762612420
C                -7.7156005424       -0.9359126157        1.6425420160
C                -6.7635139705       -0.2878360337        0.8585813677
S                -3.8654382897       -0.3750867256       -0.9917274345
O                -3.1975840132       -0.5228950580       -2.2963793741
O                -3.8250093124       -1.4823262401       -0.0259560379
N                -3.3259048987        0.9918611630       -0.1838011130
C                -2.5729509482        0.8315802579        1.0774997418
C                -1.1033545736        0.4663980914        0.9889940455
C                -0.6662597422       -0.8476663551        0.7660105895
C                 0.6808856243       -1.1873192955        0.7307198728
C                 1.6820811652       -0.2070489733        0.9203847113
N                 3.0324399273       -0.5215165807        0.8842281242
C                 4.0320195002        0.3837123341        1.4448506624
C                 5.2822508629       -0.3885017672        1.8619234726
N                 5.8559809363       -1.1061881859        0.7181759288
C                 7.1906896490       -0.9689464208        0.4783454198
O                 7.9522924861       -0.3613052659        1.2320938087
C                 7.7577564301       -1.5752423209       -0.8011738740
S                 7.9279466526       -0.3057438463       -2.1157427211
C                 9.2469611263        0.7685666095       -1.5095154409
O                 8.3950946126       -1.0021894787       -3.3227495201
O                 6.6744053224        0.4689522744       -2.1359288833
C                 4.8945744370       -1.6898444403       -0.2337074874
C                 3.5044754549       -1.8074173170        0.3970689117
C                 1.2610522775        1.1187016822        1.1535039422
C                -0.0940638419        1.4062489380        1.1842748198
F                -0.4447690518        2.7056689783        1.3928778901
H                -1.6997168527        1.7302691972       -2.3264847604
H                -2.0491165618        3.4726026143       -2.2467992627
H                -1.1435894373        2.7007276601       -0.9403961732
H                -3.4453763283        3.0360325606       -0.1725389072
H                -4.6815495566        3.3976061799       -2.1220854880
H                -4.1935180178        1.8892850525       -2.8840872004
H                -5.9240383038        2.0025521491       -0.3547736192
H                -6.6117539266        1.9233415378       -1.9709496126
H                -5.7180876751       -0.2515638634       -2.4091058089
H                -7.3831170463       -1.8126309672       -2.1134109800
H                -9.0836685355       -2.9550055799       -0.7274987317
H                -9.3018577729       -2.3983191731        1.6881874078
H                -7.7993377914       -0.6927788433        2.6983857620
H                -6.1080601279        0.4497311580        1.3131655018
H                -3.0949283781        0.0668584416        1.6567202703
H                -2.6819230023        1.7827092919        1.6070612169
H                -1.4123251410       -1.6240939885        0.6244931986
H                 0.9500254736       -2.2274093022        0.5883328884
H                 3.6203014907        0.8745952208        2.3350028056
H                 4.3116507012        1.1734262977        0.7300349150
H                 6.0461790810        0.2930588844        2.2367111011
H                 5.0378134409       -1.0956461522        2.6652465400
H                 7.1566518076       -2.3552630198       -1.2712756642
H                 8.7566650281       -1.9654807580       -0.5952887569
H                 9.0221995547        1.0500237801       -0.4794786021
H                10.1948053740        0.2307793490       -1.5717404489
H                 9.2554273056        1.6394805031       -2.1688991702
H                 5.2129575348       -2.6978910229       -0.5214028278
H                 4.8419543829       -1.0719678927       -1.1370455391
H                 2.8294674885       -2.1641158852       -0.3860008158
H                 3.5162417519       -2.5755491121        1.1885634964
H                 1.9616110519        1.9350931530        1.2769276592



