%chk=./calculation/no_transfer_pubchem_sampling_3_b3lyp/17537105.chk
%nprocshared=7
%mem=6GB
#p b3lyp/6-31g(d) opt SCF=XQC 

Gaussian input prepared by ASE

0 1
C                -3.9009331463        3.3140320784       -1.7452329550
C                -2.4211147659        3.5890354526       -1.9984842412
O                -1.6024125449        3.2118026531       -0.9114846043
C                -1.3304868086        1.8963119045       -0.6911323933
C                -1.6751992193        0.8440505806       -1.5247343430
C                -1.3167236601       -0.4582699053       -1.1958738870
C                -0.6137658533       -0.7328676847       -0.0410622876
O                -0.1884680690       -1.9744295012        0.3757541023
C                -0.5493697719       -3.1189075671       -0.3681925442
C                -1.9929060702       -3.5505238262       -0.1276103987
C                -0.2540046657        0.3381000175        0.8035991946
N                 0.4971112823        0.0045958381        1.9335319209
C                 1.1618440193        0.8312819057        2.7861941805
O                 1.0384746279        2.0332124914        2.8291748101
C                 2.1244800693        0.0757525133        3.6806459515
S                 3.7871024860        0.0173367114        2.8900383097
C                 3.3215300668       -0.4040327891        1.2110289350
C                 3.2849755442       -1.7319238855        0.8182655030
C                 2.8972823287       -2.0497112002       -0.4718860245
C                 2.5438113377       -1.0455302928       -1.3571718685
C                 2.5915065080        0.2808325385       -0.9609544688
C                 2.9918038373        0.6072685499        0.3223172808
C                -0.6148863136        1.6288072850        0.4790167518
H                -4.0811419830        2.2500397629       -1.6128188455
H                -4.4904975071        3.6717152462       -2.5849952756
H                -4.2197514115        3.8297051137       -0.8431322436
H                -2.2578138021        4.6658474116       -2.0976307722
H                -2.0869796920        3.1047625046       -2.9249095773
H                -2.2203637154        1.0025527049       -2.4411579976
H                -1.6004575391       -1.2475396628       -1.8736961754
H                -0.3598540970       -2.9581610677       -1.4361518175
H                 0.1335523203       -3.8962565326       -0.0128501088
H                -2.1484609976       -3.7469057576        0.9302866014
H                -2.6866667368       -2.7728065080       -0.4363516761
H                -2.2027391200       -4.4564512189       -0.6894784163
H                 0.6876014985       -0.9882988586        1.9805827284
H                 1.8023364246       -0.9458684951        3.8817698988
H                 2.2843202098        0.6176912351        4.6105657276
H                 3.5582091558       -2.5052524667        1.5206028201
H                 2.8685568268       -3.0835861966       -0.7833039715
H                 2.2322948730       -1.2959926542       -2.3606989415
H                 2.3136831732        1.0641011750       -1.6497604149
H                 3.0312813013        1.6368207391        0.6433571548
H                -0.3367594003        2.4476586578        1.1197473789



