%chk=./calculation/no_transfer_pubchem_sampling_3_b3lyp/20127338.chk
%nprocshared=7
%mem=6GB
#p b3lyp/6-31g(d) opt SCF=XQC 

Gaussian input prepared by ASE

0 1
C                -2.7981813294       -1.7789443549        1.2535945607
C                -2.1598149041       -1.1049950654        0.0433501613
N                -0.8347086138       -0.6343352209        0.3438449554
C                -0.4000648369        0.6200157418        0.6760866483
C                -1.2661337759        1.8210391038        0.8152428934
C                -2.0274300073        1.7699046560        2.1030207629
C                -3.3559518958        1.4980632100        2.3250413750
C                -3.5639172354        1.5339723184        3.7160099691
C                -2.3554587609        1.8215041871        4.2900232441
N                -1.4238698746        1.9578248963        3.3113691920
C                -0.0490232733        2.3201860202        3.5196974537
N                 0.8835979906        0.6003278518        0.8981301453
N                 1.3286974952       -0.6573817459        0.7235378647
C                 0.2983818233       -1.3924620335        0.3913429846
S                 0.2991557494       -3.0951304388        0.0514418372
C                 2.0927808017       -3.4078776535       -0.0785396482
C                 2.5664787655       -2.8526801651       -1.4175997099
O                 2.5803690866       -3.5285335040       -2.4250473083
N                 2.9336240301       -1.5601704580       -1.3536538173
C                 3.0108781589       -0.7215119538       -2.5434670585
C                 4.2061846819        0.2143991005       -2.4309891721
C                 1.6654413851       -0.0332988319       -2.6774924018
C                 0.5854302425       -0.7950475470       -3.1159521765
C                -0.6858685960       -0.2555842696       -3.1705877691
C                -0.8965855689        1.0600964294       -2.7916869267
C                 0.1706759582        1.8247200093       -2.3564027061
C                 1.4426255247        1.2805697823       -2.2912891619
H                -2.1983029614       -2.6297649019        1.5674721612
H                -2.8806296894       -1.0754095119        2.0793194439
H                -3.7917851684       -2.1310393834        0.9926668096
H                -2.7574202351       -0.2498445174       -0.2776892549
H                -2.0792434449       -1.8172091349       -0.7838068164
H                -1.9702810501        1.8706905968       -0.0165833973
H                -0.6175196621        2.6983941445        0.7828156290
H                -4.0988094617        1.3092433334        1.5742835128
H                -4.4908760658        1.3672577700        4.2273720774
H                -2.0926185988        1.9363701046        5.3232555061
H                 0.6056026375        1.7349332701        2.8720705750
H                 0.2150893912        2.1356569751        4.5596442292
H                 0.1079926772        3.3810245306        3.3030052669
H                 2.5772377664       -2.9439228076        0.7775920361
H                 2.1934866728       -4.4916173948       -0.0578885829
H                 2.7520738585       -1.0594336755       -0.4842294561
H                 3.1484723918       -1.4029331559       -3.3909445907
H                 5.1243624954       -0.3675208977       -2.4300563256
H                 4.1615090495        0.7825910544       -1.5049491066
H                 4.2267459270        0.9003538165       -3.2736627845
H                 0.7482650898       -1.8219448082       -3.4099163747
H                -1.5128512391       -0.8608725920       -3.5132105998
H                -1.8883494214        1.4871708248       -2.8413806590
H                 0.0149686865        2.8517045346       -2.0595179034
H                 2.2555663332        1.8914547612       -1.9336625867



