%chk=./calculation/no_transfer_pubchem_sampling_0_b3lyp/131905209.chk
%nprocshared=7
%mem=6GB
#p b3lyp/6-31g(d) opt SCF=XQC 

Gaussian input prepared by ASE

0 1
C                -8.9943486775        0.3063691968        0.0955119216
C                -7.5436981060        0.5837479851        0.0073556522
N                -6.9581419276        1.3725422996       -0.8429576056
C                -5.6271100797        1.3237560802       -0.5436418242
C                -4.6521691913        2.1065444472       -1.3475966587
C                -5.4602945176        0.4701081411        0.5246109464
C                -4.3034939332       -0.0470880459        1.2788914561
O                -4.3695481190       -1.0293471935        1.9909560379
N                -3.1647297033        0.6720167568        1.1117279134
C                -1.9145548051        0.2835831675        1.7196578593
C                -0.9396300675       -0.3184308997        0.6997852464
C                -1.5200827472       -1.5910805627        0.0520007355
C                -0.4710029923       -2.6995726714       -0.0361804895
C                 0.8686449356       -2.1463906195       -0.5088429925
N                 1.3472792445       -1.1295109288        0.4070044731
C                 2.5602379544       -0.5308830319        0.3154334433
O                 2.8953788329        0.3624319349        1.0675546480
C                 3.4735069730       -1.0693556237       -0.7858104375
C                 4.7487460470       -0.2789356176       -0.8449919960
C                 4.9369537406        0.6850067981       -1.8218523362
C                 6.0929241632        1.4600538181       -1.8825421114
C                 7.0454146890        1.2337754706       -0.9211627468
C                 6.8620834497        0.2686437508        0.0697913800
C                 5.7274683379       -0.4992163114        0.1282463610
O                 7.9613831101        0.2445400122        0.8885356387
C                 8.8290241566        1.2432545613        0.3997218711
O                 8.2634059483        1.8405399596       -0.7464762741
C                 0.3943986946       -0.6293905044        1.3785183291
O                -6.6954863964        0.0016845291        0.8577199536
H                -9.3852556237        0.6639550684        1.0468487370
H                -9.1727878262       -0.7656609138        0.0383937407
H                -9.5011177265        0.8115422200       -0.7200585635
H                -5.1625788765        2.4747114929       -2.2334616092
H                -3.8089393540        1.4890234926       -1.6532499147
H                -4.2837725034        2.9661249914       -0.7867854925
H                -3.1597798402        1.4660352065        0.4955303670
H                -2.1555871738       -0.4574123532        2.4855610245
H                -1.4609184426        1.1572428709        2.1973954709
H                -0.7471993715        0.4312255845       -0.0764975274
H                -1.8858946720       -1.3594599184       -0.9502848357
H                -2.3680825066       -1.9506657702        0.6348259022
H                -0.8030396087       -3.4685733456       -0.7346956027
H                -0.3420866137       -3.1741313890        0.9365993792
H                 0.7460241110       -1.7211608859       -1.5151548452
H                 1.5979153633       -2.9608817869       -0.5737374781
H                 2.9497409675       -1.0180893419       -1.7416645601
H                 3.6909390312       -2.1173216369       -0.5659136876
H                 4.1672746189        0.8476121118       -2.5615695456
H                 6.2345418858        2.2071977486       -2.6451481356
H                 5.5912341491       -1.2331946995        0.9044101780
H                 8.9840545391        2.0101942675        1.1767381405
H                 9.7999299993        0.7922039881        0.1385274349
H                 0.2496451039       -1.3581381970        2.1825993113
H                 0.8331823568        0.2731412962        1.8098257175



