%chk=./calculation/no_transfer_pubchem_sampling_0_b3lyp/145452207.chk
%nprocshared=7
%mem=6GB
#p b3lyp/6-31g(d) opt SCF=XQC 

Gaussian input prepared by ASE

0 1
C                 9.2920931910       -1.9020718054        1.9955970667
C                 8.1230204078       -1.6326952364        1.1236971915
C                 6.7825581855       -1.6275653116        1.3640992944
C                 6.2181874949       -1.2914098438        0.0991201495
O                 4.9176375967       -1.1699925140       -0.1412957623
C                 4.5769138964       -0.8313450892       -1.4816321150
C                 3.0646014165       -0.6802092400       -1.5719466106
C                 2.5616692496        0.5105584383       -0.7586167357
C                 1.0430449267        0.6460638681       -0.8296119577
C                 0.5560040202        1.8612299509       -0.0382735171
N                -0.8792945556        1.8443390384        0.1639555988
C                -1.3442832112        2.6856933472        1.2516218582
C                -2.3568929093        1.9244298665        2.1221000127
C                -3.3361346503        1.0576497402        1.3851330736
C                -3.6466316424        1.1468675403        0.0869887950
C                -3.1208443954        2.1920204652       -0.8534773857
C                -1.6109426855        2.0618843781       -1.0711745155
N                -4.4693283266        0.2038664891       -0.5380103982
C                -5.2110730646       -0.5325426516        0.1771595020
O                -5.9967365717       -1.4774891537       -0.3848639199
C                -5.9033376336       -1.5760237138       -1.7856109619
C                -6.8434753333       -2.6851753536       -2.2361506879
F                -6.5298876584       -3.8707272600       -1.7074957397
F                -8.1174995594       -2.4384419732       -1.9205960558
F                -6.7975064088       -2.8324676002       -3.5700750338
C                -5.3248269617       -0.4334047423        1.6715115261
C                -3.9470464629       -0.0526728729        2.2107936286
N                 7.1570036044       -1.1169026457       -0.7980491437
O                 8.3474374286       -1.3276853916       -0.1657071586
H                 9.9471919896       -1.0329531722        2.0208040031
H                 8.9557453586       -2.1316353235        3.0017093383
H                 9.8643571746       -2.7410994076        1.6035800860
H                 6.2579038257       -1.8254780259        2.2729598943
H                 4.9372625933       -1.6218010057       -2.1504165960
H                 5.0865973070        0.0994805695       -1.7561194094
H                 2.7934423194       -0.5573053041       -2.6216694359
H                 2.5991062649       -1.5950613483       -1.2020422415
H                 2.8719105191        0.3822761436        0.2794932747
H                 3.0247929268        1.4255448555       -1.1360917884
H                 0.5696982144       -0.2452147826       -0.4155068884
H                 0.7443290478        0.7331666399       -1.8751425406
H                 0.8900762929        2.7860265186       -0.5468604627
H                 1.0289607966        1.8312537848        0.9465405413
H                -0.4998669024        2.9611243196        1.8891804976
H                -1.7790968204        3.6243666889        0.8845288699
H                -1.8007807989        1.2681210740        2.7977781895
H                -2.9038165691        2.6396655212        2.7464212101
H                -3.3701115422        3.1831611616       -0.4709438572
H                -3.6211163679        2.0689880753       -1.8143708025
H                -1.4277264638        1.1989409530       -1.7151264127
H                -1.2483461115        2.9664410017       -1.5979016314
H                -6.1990452542       -0.6347484186       -2.2650290776
H                -4.8796406732       -1.8216711136       -2.0936984209
H                -6.0531973813        0.3495869726        1.9057235252
H                -5.6854052630       -1.3745046500        2.0831707842
H                -4.0280635978        0.2580902516        3.2533540184
H                -3.2795902729       -0.9218967022        2.1764863347



