%chk=./calculation/no_transfer_pubchem_sampling_0_b3lyp/56715900.chk
%nprocshared=7
%mem=6GB
#p b3lyp/6-31g(d) opt SCF=XQC 

Gaussian input prepared by ASE

0 1
N                -6.5136840174        1.3356232594        1.0769385181
C                -5.2199972553        0.9323695223        1.0892785379
O                -4.5089664183        1.0853706517        2.0676109083
C                -4.7685264834        0.2987917545       -0.1516625001
C                -5.4282037339       -0.0380818567       -1.3172698018
N                -4.5873219717       -0.6429887345       -2.1798856635
C                -3.4206472839       -0.6834937255       -1.5750717118
N                -3.4746085205       -0.1352761821       -0.3429802692
C                -2.3484266438       -0.0452288894        0.5479370203
C                -1.3489450380       -1.1388883749        0.1607006903
N                -1.0416780781       -1.0307889043       -1.2460602148
C                 0.0745589707       -0.4529308263       -1.7622629691
O                 0.1813705666       -0.1813051504       -2.9413665784
C                 1.1967626432       -0.2021142870       -0.8028969381
C                 1.8725836456       -1.2578143197       -0.1985668528
C                 2.9574151617       -1.0080873484        0.6196817025
C                 3.3845075174        0.2963979970        0.8418550955
C                 4.5827382857        0.5437252220        1.7257804061
N                 5.7203033240       -0.1966398257        1.2523745021
C                 6.5088369492        0.0030643801        0.1722013124
N                 7.3822922197       -0.9679346625        0.1170441164
N                 7.1228893089       -1.7566240879        1.1521218291
N                 6.1471451603       -1.3216857404        1.8306126964
C                 2.7204972106        1.3465242265        0.2251647046
C                 1.6344916443        1.0992351728       -0.5954886527
C                -2.1706729001       -1.2795701173       -2.1214124525
H                -7.1048468647        1.2197559272        0.2755671492
H                -6.8842507737        1.7725714467        1.9035451380
H                -6.4540590677        0.1122598769       -1.5894643965
H                -1.8808822967        0.9419536421        0.4487418206
H                -2.6939816668       -0.1539160164        1.5780640422
H                -0.4436618018       -1.0382698746        0.7574986809
H                -1.7922414331       -2.1241554192        0.3441456182
H                 1.5552366921       -2.2740171130       -0.3801104919
H                 3.4825233104       -1.8287704322        1.0872003029
H                 4.3861360840        0.1927583870        2.7433494391
H                 4.8318766561        1.6082518552        1.7523001003
H                 6.4195241322        0.8232282768       -0.5065103799
H                 3.0527062498        2.3622125332        0.3833989850
H                 1.1264062943        1.9151082090       -1.0866949273
H                -1.9417480890       -0.8511694325       -3.1020729067
H                -2.3134536886       -2.3608870199       -2.2533356090



