%chk=calculation/no_transfer_pubchem_sampling_0_b3lyp/64976816_rwf.chk
%rwf=calculation/no_transfer_pubchem_sampling_0_b3lyp/64976816_rwf.rwf
%nprocshared=14
%mem=3GB
#p b3lyp/6-31g(d) 6D 10F nosymm GFInput td=(50-50,nstate=2) SCF=XQC 

Gaussian input prepared by ASE

0 1
C                 5.5701161579        0.6119381400       -0.1140678869
C                 5.2020190327       -0.6282166224        0.7105523553
C                 3.6922089829       -0.8285451860        0.9233850034
C                 2.9245812326       -1.1561260339       -0.3693118334
N                 1.5001456536       -1.4123045243       -0.1789845895
C                 1.0976479571       -2.6967369252        0.3817311447
C                 0.5962986440       -0.3878281720       -0.0994721532
N                -0.6292178450       -0.5272849448        0.3323074370
C                -1.3325754796        0.6601475176        0.2196636923
C                -0.6582110551        1.7359980536       -0.2696228327
S                 0.9965472037        1.2619937246       -0.6533126294
C                -1.2121482694        3.1224558457       -0.4270557046
C                -2.5129757759        3.2412309166        0.3939768004
C                -3.4323814310        2.0286881968        0.1826641117
C                -2.7817100337        0.7244293749        0.6781454682
N                -3.5842390949       -0.4615958068        0.3420642374
C                -3.6728646309       -0.8056299500       -1.0820170712
C                -4.3974634658       -2.1398191461       -1.2516387422
H                 6.6575975592        0.7334240375       -0.1725453971
H                 5.1939250089        0.5526709507       -1.1417086523
H                 5.1566661053        1.5219234014        0.3375619320
H                 5.6241097182       -1.5252419516        0.2342669633
H                 5.6824154852       -0.5562451527        1.6948714355
H                 3.5364073204       -1.6469698197        1.6385249536
H                 3.2580340019        0.0719000295        1.3777649878
H                 3.3562540371       -2.0496432344       -0.8383676652
H                 3.0304415418       -0.3461090688       -1.0989973515
H                 1.1105923346       -2.7011350435        1.4809595536
H                 1.7824342378       -3.4666307331        0.0143592103
H                 0.0814442302       -2.9286620659        0.0579612141
H                -1.4174967246        3.3414052270       -1.4863543097
H                -0.4884237352        3.8784667379       -0.0945121126
H                -2.2570802152        3.3245671827        1.4590503889
H                -3.0364937909        4.1651983699        0.1200264764
H                -3.6613539845        1.9443148070       -0.8873487858
H                -4.3878639537        2.1661172370        0.7009675014
H                -2.7742229949        0.7552610338        1.7787293246
H                -3.1448430620       -1.2506443950        0.8157477539
H                -2.6856772516       -0.8569059431       -1.5733867692
H                -4.2431190893       -0.0230349157       -1.5961641599
H                -5.3889892900       -2.1023541443       -0.7880354706
H                -3.8348385138       -2.9562630188       -0.7804986324
H                -4.5156997585       -2.3882039861       -2.3123131967



