%chk=./calculation/no_transfer_pubchem_sampling_0_b3lyp/66684554.chk
%nprocshared=7
%mem=6GB
#p b3lyp/6-31g(d) opt SCF=XQC 

Gaussian input prepared by ASE

0 1
C                -2.1255734830       -1.8279447362        0.1971963768
N                -1.7630992634       -0.4323848295        0.2848022749
C                -0.4488444024       -0.0343581823        0.0731894398
C                 0.6003381841       -0.9247460007       -0.0709074819
C                 1.9153385658       -0.4783724865       -0.2570970287
C                 2.9566558946       -1.4177904595       -0.4019058265
N                 3.7874788876       -2.1998912975       -0.5181986746
C                 2.1521568668        0.8907838833       -0.3078281612
F                 3.4022421770        1.3565618678       -0.5020918457
C                 1.1248149154        1.7991970926       -0.1414927278
C                -0.1730423795        1.3567415971        0.0695168277
N                -1.2159522985        2.2578795282        0.2078289945
H                -1.5875063008       -2.3890991043        0.9610853759
H                -1.9099703879       -2.2698682848       -0.7835916613
H                -3.1921339381       -1.9184080812        0.3939881536
H                -2.4274042894        0.1769468419       -0.1734832277
H                 0.4271648909       -1.9882034575       -0.0534178380
H                 1.3455061490        2.8552888572       -0.1666920662
H                -1.9443425504        1.9735895427        0.8456491504
H                -0.9238292379        3.2140767091        0.3434509461



