%chk=calculation/no_transfer_pubchem_sampling_0_b3lyp/82927786_rwf.chk
%rwf=calculation/no_transfer_pubchem_sampling_0_b3lyp/82927786_rwf.rwf
%nprocshared=14
%mem=3GB
#p b3lyp/6-31g(d) 6D 10F nosymm GFInput td=(50-50,nstate=2) SCF=XQC 

Gaussian input prepared by ASE

0 1
C                 0.4915203675       -2.7286141046       -1.4503299894
C                 1.2332659663       -1.7288620580       -0.5947813557
C                 2.2393947768       -2.1535947478        0.2769154688
C                 2.9665687311       -1.2453998449        1.0563306743
C                 4.0175601842       -1.7169253934        1.9881329152
N                 3.9502825380       -3.0262433323        2.4360060691
N                 4.9728069953       -0.8987354083        2.2941987948
O                 5.8476093715       -1.5175514043        3.2381075211
C                 2.6977155297        0.1213521508        0.9180962385
C                 1.7136099961        0.5897015798        0.0466762658
C                 1.5177771911        2.0774785815       -0.1345042361
C                 0.9536303212       -0.3522209846       -0.6787740823
O                -0.0062986869        0.0648690680       -1.5810088012
C                -1.2354971463        0.6343522089       -1.0577065443
C                -1.7966578898        1.5618939810       -2.1426538442
C                -2.6084670927        2.7374023040       -1.5710033953
C                -3.9564320115        2.3862911815       -0.9229500763
C                -3.9247677027        1.3108257680        0.1783961343
C                -3.6513990008       -0.1104358260       -0.3522881073
C                -2.1780225468       -0.4976140869       -0.6200928396
H                 0.3471914622       -2.3505082023       -2.4664560930
H                -0.5046113923       -2.9494658218       -1.0474301542
H                 1.0428748938       -3.6726881947       -1.5038368306
H                 2.4828221275       -3.2117983628        0.3201068606
H                 3.0157668984       -3.3828168792        2.5871991270
H                 4.5901767942       -3.2208817180        3.1965852926
H                 6.5101862371       -0.8250409814        3.3736165002
H                 3.2886883093        0.8281170741        1.4921980662
H                 1.2252519222        2.3122465093       -1.1624985475
H                 2.4459332212        2.6122391231        0.0900583421
H                 0.7431362178        2.4848300146        0.5286270000
H                -0.9796685704        1.2440694983       -0.1830339188
H                -0.9410982527        1.9628255659       -2.6976789718
H                -2.3946218312        0.9884727051       -2.8645253064
H                -2.7929053583        3.4598418849       -2.3768523614
H                -1.9817850134        3.2625055176       -0.8347705395
H                -4.6547301461        2.0518984294       -1.7046641013
H                -4.3854878543        3.3091549435       -0.5097318980
H                -4.9057410382        1.3076210196        0.6710944516
H                -3.1992844771        1.5820856175        0.9591524780
H                -4.2326975463       -0.2359474931       -1.2758026295
H                -4.0623934888       -0.8425908277        0.3538044560
H                -2.1537258268       -1.2637675776       -1.4035033870
H                -1.7474751797       -0.9583724767        0.2782573549



