%chk=./calculation/no_transfer_pubchem_sampling_2_b3lyp/135455065.chk
%nprocshared=7
%mem=6GB
#p b3lyp/6-31g(d) opt SCF=XQC 

Gaussian input prepared by ASE

0 1
C                -3.2580670158        0.6220510599       -0.4130996518
C                -2.2772511246        0.8779471881        0.7297389833
C                -2.9909733776        1.5446083676        1.9078930356
C                -1.1142564593        1.7490160555        0.2498630526
N                -1.7648725918       -0.4256415158        1.1565176374
C                -0.8359074873       -0.6232360931        2.1037470092
O                -0.3596869296        0.2277818192        2.8200115618
C                -0.4524067659       -2.0932126349        2.3135957806
S                -0.4365100587       -3.0987627041        0.8065805769
C                 0.6929285745       -2.1476453224       -0.1430384013
N                 1.1645243017       -1.0734796217        0.3628685884
C                 2.0238673293       -0.3232359528       -0.3971849951
C                 2.5410185044        0.8572755624        0.1429206296
C                 3.3974025217        1.6314777405       -0.6064024444
C                 3.7569511661        1.2508916686       -1.8990209979
C                 3.2557121138        0.0900856274       -2.4441519216
C                 2.3842709717       -0.7095511205       -1.7026004167
C                 1.8425034190       -1.9435427118       -2.2646589831
O                 2.0621568164       -2.3998019665       -3.3635514745
N                 0.9830308503       -2.6135682181       -1.3884487361
H                -2.7537849338        0.1465841469       -1.2524694151
H                -3.6796224206        1.5621681844       -0.7575613622
H                -4.0737187998       -0.0183800794       -0.0830878474
H                -3.3747381457        2.5167749936        1.6119249740
H                -2.2935094118        1.6759565431        2.7298841189
H                -3.8203586891        0.9278328501        2.2470381636
H                -1.4816124215        2.7156109740       -0.0830620201
H                -0.5917498302        1.2684406825       -0.5748007898
H                -0.4111724092        1.8986518289        1.0632940097
H                -2.0679192330       -1.2254937441        0.6207424967
H                -1.1756943516       -2.5695058997        2.9775852500
H                 0.5372778615       -2.1314204925        2.7664621232
H                 2.2479179154        1.1308076394        1.1438453688
H                 3.7964848684        2.5443546019       -0.1896434028
H                 4.4308777501        1.8695232702       -2.4720030075
H                 3.5179704704       -0.2281200262       -3.4418273307
H                 0.5789130221       -3.4832437007       -1.7161391622



