%chk=calculation/no_transfer_pubchem_sampling_2_b3lyp/135503718_rwf.chk
%rwf=calculation/no_transfer_pubchem_sampling_2_b3lyp/135503718_rwf.rwf
%nprocshared=14
%mem=3GB
#p b3lyp/6-31g(d) 6D 10F nosymm GFInput td=(50-50,nstate=2) SCF=XQC 

Gaussian input prepared by ASE

0 1
C                -0.9824549689        0.6506245932        3.5576405468
C                -0.7111062859        1.4461231568        2.2512183475
C                 0.5675662393        2.2705603728        2.5149481160
C                -1.8375001023        2.4808085156        1.9794101302
C                -0.5382503086        0.4866634865        1.0453922020
C                 0.6691638063        0.4393857322        0.3445718315
C                 0.8582004279       -0.4155899877       -0.7435746868
C                 2.1451942935       -0.4403803141       -1.4502931859
N                 2.3778994210       -1.2716058054       -2.4565162926
S                 3.9267824357       -1.0265668666       -3.0256307027
C                 4.1936927716        0.2091750870       -1.8361728631
S                 5.7668347067        1.0834389277       -1.6683385187
C                 5.2560459059        2.8113253901       -1.7622804360
O                 6.5286606562        0.7296550653       -2.8740735475
O                 6.3059149452        0.8332510945       -0.3292247317
N                 3.1661397142        0.4192935660       -1.0732464042
C                -0.1903829794       -1.2504819981       -1.1479664734
C                -1.4225340131       -1.2575152986       -0.4987784165
C                -2.5648287535       -2.1892521545       -0.9665935469
C                -2.1418594030       -3.0416763327       -2.1814967668
C                -2.9569107058       -3.1718088750        0.1650961837
C                -3.7964740553       -1.3561036737       -1.4010174180
C                -1.5738722112       -0.3754611710        0.6031993211
O                -2.7957701729       -0.4037633414        1.2252531262
H                -1.8766537474        0.0180261854        3.5314706931
H                -1.0996432793        1.3408941815        4.4010957067
H                -0.1389200594       -0.0128227530        3.7757547035
H                 0.3991335511        2.9320841634        3.3718298481
H                 0.8323924728        2.9003653176        1.6591029882
H                 1.4254544569        1.6334471986        2.7533783926
H                -2.8226069182        2.0439482311        1.7825447271
H                -1.5865561025        3.0883442727        1.1033267844
H                -1.9470462259        3.1522957232        2.8389235227
H                 1.4961135101        1.0705560885        0.6379087365
H                 4.8277696915        3.0038101198       -2.7476094924
H                 4.5328091121        3.0018188517       -0.9678080264
H                 6.1617496359        3.4045842137       -1.6131691731
H                -0.0155417972       -1.9025751169       -1.9927978825
H                -1.8788837167       -2.4254649445       -3.0487006558
H                -2.9798035610       -3.6828232394       -2.4764757740
H                -1.2926081602       -3.6955385998       -1.9534812718
H                -3.3186664153       -2.6503899830        1.0525240328
H                -3.7506654392       -3.8429648449       -0.1854273991
H                -2.0987440279       -3.7904280022        0.4533775063
H                -4.1941804511       -0.7557493909       -0.5814339624
H                -4.5913714748       -2.0253659196       -1.7525719084
H                -3.5356574807       -0.6838241409       -2.2271230462
H                -2.7980239370        0.2176692187        1.9638631357



