%chk=./calculation/no_transfer_pubchem_sampling_2_b3lyp/150193432.chk
%nprocshared=7
%mem=6GB
#p b3lyp/6-31g(d) opt SCF=XQC 

Gaussian input prepared by ASE

0 1
C                -7.3249981960        0.3885692709       -2.4432751942
O                -6.0825536450        0.3626891901       -1.7864926016
C                -5.7449931006       -0.7491495441       -1.0710608187
C                -6.5749562488       -1.8564877899       -0.9159892471
C                -6.1494747601       -2.9337246744       -0.1623582132
C                -4.9098204013       -2.9376484397        0.4482789714
C                -4.0756385534       -1.8363571120        0.2958840342
O                -2.8377835752       -1.7224428317        0.8483387951
C                -2.2772685901       -2.8191723617        1.5246996838
C                -4.4871960917       -0.7349332323       -0.4642284841
C                -3.5534922992        0.4329097245       -0.6041554736
N                -2.3921602337        0.0659696518       -1.4249710111
N                -1.3602699456        1.0401739121       -1.2632692903
P                 0.0941730322        0.5862302864       -0.5587875986
O                 0.0350866422       -0.7133961078        0.1295370541
C                 0.5438440779        2.0387307972        0.4774937220
C                -0.5980410862        2.4846413781        1.3882739330
C                -0.9212306603        1.4104070657        2.4209273201
C                -0.2362018558        3.8002643714        2.0755919605
N                 1.2282703692        0.6429754720       -1.8433856776
N                 2.4517023965       -0.0510056809       -1.6349900729
C                 3.5130587132        0.8752756605       -1.2363193006
C                 4.5906131669        0.1641039430       -0.4683578719
C                 5.8840834656        0.0261317542       -0.9792381452
O                 6.1127116927        0.5885884739       -2.2000647801
C                 7.3828046727        0.4392151439       -2.7839050653
C                 6.8521169523       -0.6491491894       -0.2405750326
C                 6.5295860851       -1.1765625573        0.9949897030
C                 5.2583090756       -1.0455846227        1.5204139487
C                 4.2867989284       -0.3743730181        0.7874666148
O                 3.0041979299       -0.1802095606        1.2108090314
C                 2.5567126068       -0.8493225512        2.3650762066
H                -7.3653302498        1.3488631502       -2.9557313271
H                -7.4094757810       -0.4164455753       -3.1803977190
H                -8.1585759928        0.3232527420       -1.7359386436
H                -7.5487917685       -1.8900768655       -1.3763864481
H                -6.7996905632       -3.7882704254       -0.0472584775
H                -4.6060845935       -3.7889150745        1.0356178682
H                -1.2499785022       -2.5256400765        1.7355737018
H                -2.8044791141       -3.0276170688        2.4619299584
H                -2.2734589924       -3.7175221014        0.8998613391
H                -3.2334147574        0.7537704261        0.3984072262
H                -4.0612343070        1.2612142820       -1.1019093525
H                -2.0185829588       -0.8095772525       -1.0552517846
H                -1.2950933709        1.6508943079       -2.0674225167
H                 1.4180552420        1.7600507780        1.0681996355
H                 0.8235855114        2.8474126662       -0.1992866468
H                -1.4847937854        2.6457402778        0.7648267966
H                -0.0671608248        1.2476037180        3.0764263470
H                -1.7705570396        1.7112427100        3.0317227538
H                -1.1636841169        0.4741908239        1.9262882822
H                 0.6560179979        3.6761587860        2.6865132586
H                -0.0441471969        4.5804420959        1.3421292460
H                -1.0492793974        4.1283022351        2.7194502566
H                 0.8094669889        0.3212009325       -2.7132505283
H                 2.3115473656       -0.7399263724       -0.8944963259
H                 3.9287894190        1.3123332131       -2.1467143056
H                 3.1082847173        1.6833825679       -0.6105704434
H                 7.3203745652        0.9371707629       -3.7505197275
H                 8.1635904365        0.9172658872       -2.1828433753
H                 7.6356534896       -0.6147571743       -2.9375036196
H                 7.8546018638       -0.7694334600       -0.6172698574
H                 7.2860897005       -1.6984200518        1.5619357512
H                 5.0371216765       -1.4588911559        2.4909386401
H                 2.7696610610       -1.9208457345        2.3139687414
H                 3.0050572891       -0.4297648503        3.2723659450
H                 1.4779244241       -0.7017409456        2.3802422510



