%chk=./calculation/no_transfer_pubchem_sampling_2_b3lyp/15664389.chk
%nprocshared=7
%mem=6GB
#p b3lyp/6-31g(d) opt SCF=XQC 

Gaussian input prepared by ASE

0 1
C                 1.1131766090       -2.0955983305       -1.5425083301
C                 2.1818204976       -1.5861572519       -0.5710150129
C                 2.2413486266       -2.4809935038        0.6661044666
C                 1.8571032286       -0.1794694283       -0.1679109226
C                 2.5110939401        0.8940996923       -0.5791660066
C                 2.1918093947        2.3123240873       -0.1976872588
C                 0.8392527467        2.4539400725        0.4812791960
O                 0.6995930251        2.8277904905        1.6258198354
N                -0.2014714996        2.1559027350       -0.3328003512
C                -1.5609941815        2.0038485706        0.1666388797
C                -2.5489042026        2.6295125779       -0.8114631037
C                -1.8023891464        0.5354283494        0.4520394852
C                -1.4430272304        0.0325051072        1.6985495773
C                -1.5645633330       -1.3166805134        1.9782516938
C                -2.0502215409       -2.1841304047        1.0140416072
C                -2.4078803950       -1.6932715757       -0.2296783821
C                -2.2791425853       -0.3433527239       -0.5115659685
H                 0.1323792383       -2.0637622934       -1.0722886237
H                 1.0879504726       -1.4795023329       -2.4391269681
H                 1.3250267028       -3.1216727138       -1.8346240665
H                 3.1537547958       -1.6034341476       -1.0761481340
H                 2.4935292272       -3.5016053612        0.3868411571
H                 2.9922985845       -2.1162792546        1.3631425407
H                 1.2763991399       -2.4873909409        1.1691755788
H                 1.0069318259       -0.0866898124        0.4949189883
H                 3.3703014555        0.7849082713       -1.2305865002
H                 2.9565249461        2.6854216831        0.4889380962
H                 2.2112688332        2.9430793086       -1.0916045560
H                -0.0026907096        1.7301473060       -1.2254880336
H                -1.5850415779        2.5536577772        1.1139964071
H                -2.3856194714        3.7030603872       -0.8614894334
H                -2.4239606724        2.2201597287       -1.8113413700
H                -3.5673294617        2.4443542697       -0.4805048598
H                -1.0542289428        0.7077521555        2.4468984770
H                -1.2784328745       -1.6918527994        2.9499878670
H                -2.1457606278       -3.2383548703        1.2290115415
H                -2.7844247292       -2.3647136749       -0.9880660969
H                -2.5554781078        0.0170193641       -1.4908444164



