%chk=./calculation/no_transfer_pubchem_sampling_2_b3lyp/95876918.chk
%nprocshared=7
%mem=6GB
#p b3lyp/6-31g(d) opt SCF=XQC 

Gaussian input prepared by ASE

0 1
N                 4.2380622763        0.0695639230        3.3387339479
C                 4.3812218398        0.1844693138        1.9921557194
N                 5.5413684113        0.6703815707        1.5514235515
C                 5.6271988375        0.8381333736        0.2379591655
C                 4.6102907380        0.5344976299       -0.6377038578
C                 3.4297505076        0.0067629357       -0.0743964253
N                 2.3644894638       -0.3697900598       -0.8172955499
C                 2.3379723436       -0.1894954611       -2.2529578125
C                 1.1074416738       -0.8687313380       -2.8402745180
C                -0.1814857700       -0.2681613661       -2.2732000395
C                -0.0360561600        0.0663559967       -0.7776834697
C                -1.3265449679       -0.1934433179        0.0008953577
C                -2.4738937842        0.7272282009       -0.4321575123
C                -3.7041978240        0.4407296542        0.3799637140
C                -4.6347418156       -0.4956809772       -0.0511945290
C                -5.7491911379       -0.7890453978        0.7142772833
C                -5.9465412782       -0.1496618067        1.9259847394
C                -5.0236613972        0.7833911280        2.3666292557
C                -3.9104111245        1.0741716735        1.5987623368
C                 1.1204400702       -0.7390739751       -0.1795682620
N                 3.3355933764       -0.1623921495        1.2496303157
H                 3.4789945941       -0.4955603536        3.6755115619
H                 5.0780641148        0.1240311061        3.8870592617
H                 6.5688402546        1.2394808452       -0.1164930124
H                 4.7233084184        0.6997185843       -1.6942762134
H                 2.3250867623        0.8808770658       -2.5077181271
H                 3.2399293864       -0.6315773066       -2.6907107634
H                 1.1554280008       -1.9353229661       -2.6163657168
H                 1.1236383326       -0.7605089082       -3.9257939243
H                -0.9935024599       -0.9831424016       -2.4179663789
H                -0.4360976204        0.6368184892       -2.8272613072
H                 0.2204665548        1.1261438913       -0.6713378374
H                -1.6304739785       -1.2346760086       -0.1312551216
H                -1.1389563487       -0.0390195214        1.0658847933
H                -2.6872178062        0.5744821895       -1.4911987192
H                -2.1685442083        1.7661768434       -0.2910824332
H                -4.4866000454       -0.9959245054       -0.9981583633
H                -6.4662978793       -1.5173947520        0.3640410647
H                -6.8170136551       -0.3764207083        2.5238048981
H                -5.1725846583        1.2867702716        3.3109363102
H                -3.1933555210        1.8047763739        1.9458720184
H                 1.2364052882       -0.5268740179        0.8839652400
H                 0.9333771954       -1.8130617614       -0.2974386411



