%chk=calculation/no_transfer_pubchem_sampling_6_b3lyp/144273372_rwf.chk
%rwf=calculation/no_transfer_pubchem_sampling_6_b3lyp/144273372_rwf.rwf
%nprocshared=14
%mem=3GB
#p b3lyp/6-31g(d) 6D 10F nosymm GFInput td=(50-50,nstate=2) SCF=XQC 

Gaussian input prepared by ASE

0 1
N                -0.7389360067        4.3826915111        0.3947264848
C                -0.4291332284        3.0234685078        0.2326522730
C                -1.4652939057        2.0705570220        0.1954136862
C                -1.1945403534        0.6963442052        0.0982064793
C                -2.1574359378       -0.4061426399        0.0476059211
C                -3.5493064038       -0.2138237837        0.1007013116
C                -4.4231746210       -1.2923172790        0.0493208442
C                -3.9306164826       -2.5996628484       -0.0567904261
C                -2.5602740118       -2.8136886733       -0.1100135951
C                -1.6648496517       -1.7352711504       -0.0591425756
C                -0.2118046510       -2.0695692777       -0.1220516069
O                 0.2224688528       -3.2124115976       -0.2153350265
N                 0.6286036756       -0.9615215130       -0.0651915714
C                 2.0390739640       -0.9031111127       -0.0993948618
C                 2.9666593651       -1.9378337946       -0.1963820836
C                 4.3173842125       -1.5845536606       -0.2082590885
C                 4.7264507676       -0.2449259834       -0.1258725234
C                 3.7893062024        0.7827342160       -0.0290177237
C                 2.4302676362        0.4589285956       -0.0152354087
C                 1.2129374065        1.2576433380        0.0733377246
C                 0.9192198935        2.6157734097        0.1712594273
C                 0.1494212917        0.3424991674        0.0390113570
H                -1.6567994012        4.6457114128        0.0564733329
H                -0.0323477181        5.0161501570        0.0403667438
H                -2.4918522355        2.4217155193        0.2514731102
H                -3.9492749259        0.7919386493        0.1844541165
H                -5.4948535566       -1.1170330682        0.0925663687
H                -4.6166591040       -3.4408483333       -0.0965591671
H                -2.1451577269       -3.8126661913       -0.1914796232
H                 2.6373387342       -2.9665805718       -0.2589635204
H                 5.0663306553       -2.3681045665       -0.2828161734
H                 5.7862485319       -0.0062938120       -0.1373079232
H                 4.1109045509        1.8187940872        0.0354086041
H                 1.7096921819        3.3614070591        0.2068351134



