%chk=./calculation/no_transfer_pubchem_sampling_6_b3lyp/145077716.chk
%nprocshared=7
%mem=6GB
#p b3lyp/6-31g(d) opt SCF=XQC 

Gaussian input prepared by ASE

0 1
C                 5.3023440716       -6.7912488577        1.4017135065
C                 3.9489104423       -6.4983891137        1.4561928462
C                 3.4827517431       -5.2853287020        0.9866221713
C                 4.3730195355       -4.3532089466        0.4606196360
C                 3.8851263278       -3.0682227135       -0.0414426512
N                 2.5597301386       -2.8266584947       -0.0032802684
C                 2.1153054778       -1.9072501955       -0.8701019425
C                 0.6641811503       -1.7796520360       -1.0453323981
C                -0.2125331960       -2.6904203973       -0.4624480216
C                -1.5744296958       -2.4647945602       -0.4959272798
C                -2.0696298596       -1.3165554401       -1.1044663022
N                -3.4418049406       -1.0182923680       -1.0730046642
C                -4.4566043197       -1.7594451525       -1.6388841870
C                -4.3954029567       -2.9899394864       -2.2758133937
C                -5.5731059989       -3.5127924404       -2.7736345960
C                -6.7815584180       -2.8290161147       -2.6500431768
C                -6.8443454154       -1.5969623582       -2.0306009338
C                -5.6741233604       -1.0497459492       -1.5191845411
C                -5.3697648100        0.1764386817       -0.8380001564
C                -6.1488440120        1.2549979255       -0.4211257509
C                -5.5555689874        2.2891810609        0.2655922341
C                -4.1896237730        2.2517732280        0.5717756903
C                -3.4289957747        3.2027324119        1.3411661001
C                -3.8431300011        4.4045063727        1.9098478792
C                -2.9438123983        5.1656331016        2.6276933402
C                -1.6295040902        4.7422237672        2.8011124681
C                -1.1938159423        3.5536151242        2.2493657193
C                -2.0944853566        2.8000213565        1.5156441547
S                -1.7364914799        1.2880328469        0.7115190587
C                -3.3940831735        1.1724142423        0.1533857166
C                -3.9792073971        0.1477316902       -0.5799070345
C                -1.1997004393       -0.4308995938       -1.7368499174
C                 0.1573617588       -0.6634757032       -1.7070612555
N                 2.8813169870       -1.0581139671       -1.4948612808
C                 4.2059622602       -0.9740621564       -0.9865342624
C                 4.2179683569        0.1622178784        0.0551706766
C                 4.9267710769        0.0573880756        1.2384039401
C                 4.8226612466        1.0717068138        2.1774420413
C                 4.0072494039        2.1641632881        1.9497681239
C                 3.2917233138        2.2762941144        0.7590185784
C                 2.3868813768        3.4069854193        0.5026177490
C                 2.7026002695        4.6954491409        0.9276573410
C                 1.8389222741        5.7480742821        0.6862690343
C                 0.6476419860        5.5339466941        0.0139259960
C                 0.3242187560        4.2578575766       -0.4151770590
C                 1.1834686601        3.2029759138       -0.1716895740
C                 3.4264423518        1.2698281193       -0.1918014986
N                 4.7323176649       -2.1774694373       -0.4541612251
C                 5.7325591349       -4.6510007614        0.4093704076
C                 6.1924192828       -5.8664127679        0.8774153356
H                 5.6642855798       -7.7409618855        1.7678856379
H                 3.2568983048       -7.2202760663        1.8649981936
H                 2.4324155396       -5.0400794506        1.0224842566
H                 0.1883315091       -3.5578058596        0.0381036960
H                -2.2585527156       -3.1541564423       -0.0232883346
H                -3.4585958519       -3.5159815277       -2.3817318359
H                -5.5576958072       -4.4709783600       -3.2713772414
H                -7.6803647164       -3.2724837463       -3.0517171019
H                -7.7800206541       -1.0656200135       -1.9446453114
H                -7.2071436011        1.2680866883       -0.6307988440
H                -6.1436462348        3.1310445523        0.5963663880
H                -4.8632259429        4.7346760958        1.7845907613
H                -3.2634368091        6.0998074263        3.0650112598
H                -0.9410832374        5.3477436579        3.3707609249
H                -0.1774400720        3.2163868530        2.3790566196
H                -1.5995418912        0.4402736783       -2.2346234799
H                 0.8489026423        0.0159866302       -2.1786344488
H                 4.8720233692       -0.6499681912       -1.8039870657
H                 5.5412112063       -0.8101813629        1.4242764878
H                 5.3720493026        0.9947831027        3.1044969286
H                 3.9050273434        2.9238639893        2.7109888879
H                 3.6398398654        4.8760895590        1.4338269119
H                 2.0988379815        6.7419756889        1.0211961797
H                -0.0272526163        6.3561921235       -0.1721543430
H                -0.6064655638        4.0835024468       -0.9355200204
H                 0.9068156657        2.2049719456       -0.4788688963
H                 2.9034224051        1.3395124120       -1.1324203771
H                 6.4081393027       -3.9164119390       -0.0015235256
H                 7.2469764449       -6.0968234175        0.8357233186



