%chk=calculation/no_transfer_pubchem_sampling_6_b3lyp/27056496_rwf.chk
%rwf=calculation/no_transfer_pubchem_sampling_6_b3lyp/27056496_rwf.rwf
%nprocshared=14
%mem=3GB
#p b3lyp/6-31g(d) 6D 10F nosymm GFInput td=(50-50,nstate=2) SCF=XQC 

Gaussian input prepared by ASE

0 1
C                 7.4226969587       -0.8146678769       -2.2318781476
O                 6.6632213264       -1.0724936818       -1.0575416821
C                 5.4710466722       -0.4422761973       -0.9017394606
C                 4.7700794731       -0.7489412628        0.2760251463
C                 3.5469368722       -0.1513091970        0.5351388277
C                 2.9815706533        0.7622305040       -0.3757143196
C                 1.6745260681        1.4361766469       -0.1705343477
O                 1.1690747803        2.1092151918       -1.0697920305
C                 0.9309809967        1.3436169466        1.1613615654
C                -0.3535531383        0.4597762755        1.1192263136
N                -1.2067683384        0.8911029180        0.0297925637
C                -2.5951416594        0.8446400258        0.0962070608
C                -3.2848865789        0.0272818599        1.0051292518
C                -4.6802799629        0.0198163583        1.0086199652
C                -5.4380186174        0.7965074091        0.1303495408
C                -6.9475357625        0.7561633386        0.1683106561
C                -4.7473846118        1.6145809233       -0.7926369278
C                -5.5066569123        2.4795265861       -1.7721915038
C                -3.3545562553        1.6282417330       -0.7951820600
C                -0.0056825672       -1.0313410089        1.0811899343
C                 0.3382031929       -1.6914482798        2.2688476435
C                 0.7023875020       -3.0385100699        2.2590220953
C                 0.7218723469       -3.7466422445        1.0554390095
C                 0.3707940475       -3.0992520150       -0.1302693932
C                 0.0080274732       -1.7511438061       -0.1174604542
C                 3.6900514619        1.0480422733       -1.5542286101
C                 4.9220527639        0.4644877021       -1.8229065181
H                 7.7031210778        0.2437142359       -2.3038450479
H                 8.3241855433       -1.4225869223       -2.1412716828
H                 6.8749073647       -1.1082052342       -3.1361092737
H                 5.2072264939       -1.4617777514        0.9676601129
H                 3.0185783119       -0.4252688726        1.4417057688
H                 0.6230966550        2.3673568107        1.4025758352
H                 1.5712495365        0.9896410173        1.9715682629
H                -0.8644750704        0.6475301678        2.0770740567
H                -0.8072074357        1.6079696650       -0.5651744369
H                -2.7434901165       -0.6202008680        1.6867734422
H                -5.1950041517       -0.6225314394        1.7207417993
H                -7.3005227012        0.0661717155        0.9416839043
H                -7.3773159618        0.4267986487       -0.7876929905
H                -7.3830018703        1.7418652741        0.3829171478
H                -6.1608215368        3.1964190051       -1.2585457936
H                -4.8247112378        3.0492737910       -2.4109527072
H                -6.1531169713        1.8791445487       -2.4258611240
H                -2.8318046601        2.2666562225       -1.5058069779
H                 0.3109069418       -1.1478640142        3.2124075812
H                 0.9602036254       -3.5365042869        3.1903288247
H                 0.9996959136       -4.7972732351        1.0442124188
H                 0.3742846294       -3.6461040736       -1.0697060060
H                -0.2827993984       -1.2476539713       -1.0342883865
H                 3.2496735986        1.7460331583       -2.2586636229
H                 5.4440822352        0.7140153557       -2.7394412233



