%chk=calculation/no_transfer_pubchem_sampling_6_b3lyp/91533622_rwf.chk
%rwf=calculation/no_transfer_pubchem_sampling_6_b3lyp/91533622_rwf.rwf
%nprocshared=14
%mem=3GB
#p b3lyp/6-31g(d) 6D 10F nosymm GFInput td=(50-50,nstate=2) SCF=XQC 

Gaussian input prepared by ASE

0 1
C                -3.2158809118       -4.1723640759        2.1628328960
C                -2.2059474456       -3.0911982978        1.7689725823
C                -1.2003322949       -3.6045520605        0.7130513053
C                -0.1803971585       -2.5746805093        0.3162307310
C                -0.1639856648       -1.8116475570       -0.8144268496
C                -1.2090374856       -1.9154199736       -1.9126217829
C                -2.4356973491       -1.0371384913       -1.7016616480
C                -3.6861529647       -1.6032610173       -1.4276976308
C                -4.8115792959       -0.8037648463       -1.2336812037
C                -4.7234723895        0.5942823176       -1.3162556970
C                -5.9280200916        1.4302383346       -1.0753292981
C                -6.7572936540        1.1508894197        0.0222973880
C                -7.8971121971        1.9051312977        0.2922872743
C                -8.2445908802        2.9742660196       -0.5357382593
C                -7.4470804644        3.2743952255       -1.6342096841
C                -6.2981575687        2.5123944000       -1.9121995235
C                -5.5522637835        2.8523342749       -3.0907511389
N                -4.9893883118        3.1693434960       -4.0585728035
C                -3.4694091571        1.1608119270       -1.5995626783
C                -2.3467478859        0.3597387197       -1.7888193549
C                 0.8949842830       -0.8103203198       -1.0494747884
O                 0.9186312831       -0.0963796873       -2.0504163138
N                 1.9099083510       -0.6952072426       -0.0704170471
C                 2.9912944702        0.3078620918       -0.2780300194
C                 2.8978621904        1.4684091871        0.7286032699
C                 4.1336965099        2.3634432390        0.5592402461
C                 5.4244658080        1.6490860773        1.0305227866
C                 6.7032470375        2.2901634378        0.4503876600
C                 6.9391332642        2.0932948170       -1.0496321505
C                 8.1850840787        2.7783733483       -1.5659051710
O                 8.9461783609        3.4372024359       -0.8919421795
C                 5.3304095357        0.1101107646        0.8210939218
C                 4.4150406436       -0.3214865011       -0.3383300594
C                 1.8689995374       -1.4702772412        1.0522110650
N                 2.7030525257       -1.5137343428        2.0812062774
C                 2.1388234080       -2.4770695387        2.8656914438
N                 1.0297027046       -3.0342731136        2.4142296002
N                 0.8529324371       -2.3700225450        1.2219385045
H                -3.9209860804       -3.7945476306        2.9113139330
H                -2.7133839301       -5.0483119305        2.5900465951
H                -3.7989755574       -4.5110164584        1.2972899328
H                -2.7304308821       -2.2159763465        1.3678469078
H                -1.6509958423       -2.7615484068        2.6537447982
H                -1.7427392718       -3.9351825000       -0.1767643914
H                -0.6719784210       -4.4735217350        1.1211261593
H                -1.5290259958       -2.9559253150       -2.0243231814
H                -0.7196423337       -1.6247582383       -2.8468249844
H                -3.7896149849       -2.6852225801       -1.3806661439
H                -5.7745488601       -1.2702543472       -1.0440698687
H                -6.4814421616        0.3373325613        0.6864499938
H                -8.5095021445        1.6628993169        1.1564733740
H                -9.1294845293        3.5685402397       -0.3287878804
H                -7.7059009807        4.0934919624       -2.2976180347
H                -3.3659445362        2.2393114838       -1.6632171221
H                -1.3876601282        0.8170245025       -2.0117495187
H                 2.7480603250        0.7052574834       -1.2629739916
H                 2.8512908663        1.0859427158        1.7541956406
H                 1.9755441006        2.0312091605        0.5432523580
H                 4.2125688164        2.6504525300       -0.4995843572
H                 4.0062987018        3.2996052371        1.1154527345
H                 5.4880566741        1.8082666573        2.1157851914
H                 7.5740209956        1.8930142045        0.9867590408
H                 6.6948389032        3.3670358301        0.6625760413
H                 6.0995591976        2.4634818741       -1.6584864083
H                 7.0298858052        1.0283067904       -1.3142400839
H                 8.3746802960        2.6370407953       -2.6551473863
H                 4.9425008007       -0.3515651397        1.7329938074
H                 6.3323818671       -0.3105847969        0.6634614856
H                 4.3398808312       -1.4138613410       -0.3530038975
H                 4.8626763342       -0.0370421508       -1.2979967055
H                 2.5691126513       -2.7778658984        3.8115032924



