%chk=calculation/no_transfer_pubchem_sampling_5_b3lyp/160913493_rwf.chk
%rwf=calculation/no_transfer_pubchem_sampling_5_b3lyp/160913493_rwf.rwf
%nprocshared=14
%mem=3GB
#p b3lyp/6-31g(d) 6D 10F nosymm GFInput td=(50-50,nstate=2) SCF=XQC 

Gaussian input prepared by ASE

0 1
C                 1.7145308371       -2.3803581935       -1.3381101771
C                 0.2763106683       -1.8514846684       -1.5204734772
C                -0.6626259084       -2.9686478152       -0.9985119229
C                 0.0816045408       -1.5978052030       -3.0621005534
C                 0.1968802261       -2.8113564638       -3.8767083530
N                 0.2810761570       -3.7790661930       -4.5128045599
C                 0.0528440057       -0.5192175590       -0.7969351355
C                 0.9641764630        0.3069818807       -0.1498527249
C                 2.4221338777        0.1685739679        0.1146620838
C                 2.8867818370       -0.4708330984        1.2740042989
C                 4.2485600323       -0.5278332858        1.5639228890
C                 5.1838568889        0.0640137677        0.7037759686
C                 6.6635244275        0.0253173739        0.9435632257
O                 7.4815903200        0.1808542268        0.0684211278
O                 7.0728851255       -0.1984670878        2.2228943281
C                 4.7275447025        0.7035959739       -0.4563824401
C                 3.3664397955        0.7676637090       -0.7367390692
C                 0.2592501091        1.4788349106        0.2989121909
C                 0.6755465473        2.6324926845        0.9940033163
C                -0.2835315754        3.5889295623        1.2670121557
C                -1.6341412141        3.4129291026        0.8702886103
C                -2.0740362747        2.2843467183        0.1881243854
C                -1.0931097205        1.3247252566       -0.0948988066
N                -1.2086786565        0.1144160377       -0.7609160207
C                -2.5068297647       -0.3118355666       -1.2698954398
C                -3.4912031370       -0.8167404874       -0.2195974475
C                -3.1023204358       -1.1419064743        1.0825559447
C                -4.0387466375       -1.6246403894        2.0000636119
C                -5.3718143833       -1.7890904479        1.6252596000
C                -5.7678336167       -1.4647566684        0.3254129572
C                -4.8335857351       -0.9794624300       -0.5880809712
C                -2.3349376180        4.6123851501        1.3386516190
N                -1.5921596891        5.4687490866        1.9506850848
C                -0.2237941736        4.9238554095        1.9738149636
H                 1.9359339243       -2.5747404656       -0.2862492199
H                 2.4675725899       -1.6888118208       -1.7217166067
H                 1.8162657825       -3.3246674805       -1.8822610029
H                -0.4735748122       -3.1356492335        0.0667938095
H                -1.7267449872       -2.7587009676       -1.1110081043
H                -0.4522618644       -3.9032320445       -1.5282926966
H                 0.8420461113       -0.8819746251       -3.3957557504
H                -0.8868119689       -1.1409277355       -3.2839622485
H                 2.1713380794       -0.9336727438        1.9477022378
H                 4.5704576207       -1.0720816050        2.4494772814
H                 6.3176033479       -0.1422781573        2.8301136896
H                 5.4581661103        1.1476497635       -1.1244826020
H                 3.0224590393        1.2823855000       -1.6295966253
H                 1.7131538832        2.7516603201        1.2945963569
H                -3.1155208311        2.1529740458       -0.0876922299
H                -2.3630879454       -1.0799320893       -2.0287234370
H                -2.9483275352        0.5442551301       -1.7957177963
H                -2.0677070480       -1.0096177187        1.3835096413
H                -3.7226868668       -1.8693891727        3.0105354195
H                -6.0991068968       -2.1634943031        2.3402496751
H                -6.8048932195       -1.5854010474        0.0242099810
H                -5.1503618181       -0.7243770528       -1.5978519180
H                -3.3994444092        4.7982155504        1.1974879570
H                 0.4509657586        5.6408438047        1.4866649063
H                 0.1083749343        4.8458033614        3.0179500199



