%chk=./calculation/no_transfer_pubchem_sampling_5_b3lyp/17866770.chk
%nprocshared=7
%mem=6GB
#p b3lyp/6-31g(d) opt SCF=XQC 

Gaussian input prepared by ASE

0 1
F                 6.3807883046       -1.4255104966        0.4954016690
C                 5.2004916758       -0.8004116289        0.2670322593
C                 5.2456776967        0.5278727227       -0.1636988167
C                 4.0754435403        1.2114708120       -0.4108657060
C                 2.8772170614        0.5358889215       -0.2168932207
N                 1.5908671738        0.9507351602       -0.3791951831
C                 0.7335236748       -0.0753262929       -0.0640347779
C                -0.6877302775        0.0770279452       -0.1439076591
C                -1.6497324297       -0.8462220447        0.1356047071
C                -2.9721734445       -0.3618945782       -0.0500509516
C                -4.1894792224       -1.0218496136        0.1384357654
C                -5.3677366706       -0.3527965129       -0.1041769397
C                -5.3644809233        0.9737629444       -0.5352451572
C                -4.1774751349        1.6510187737       -0.7300018735
C                -2.9921588664        0.9776098581       -0.4858226535
S                -1.3809688721        1.6101601144       -0.6569887503
C                 1.4737161900       -1.1763469667        0.3096101722
C                 2.8384828942       -0.8146089206        0.2211950768
C                 4.0333937534       -1.4952136580        0.4679163118
H                 6.2064395564        0.9987474753       -0.2962130679
H                 4.0910669511        2.2378332965       -0.7441027330
H                 1.2973465155        1.8644203081       -0.6824150348
H                -1.4289452767       -1.8450083036        0.4649303631
H                -4.1910713083       -2.0486303107        0.4721099046
H                -6.3108227775       -0.8585269284        0.0400434054
H                -6.3013610290        1.4773731701       -0.7189323665
H                -4.1662715155        2.6773367571       -1.0633202899
H                 1.0879877744       -2.1288232895        0.6109286996
H                 4.0479639859       -2.5200887143        0.8013148470



