%chk=calculation/no_transfer_pubchem_sampling_4_b3lyp/101477451_rwf.chk
%rwf=calculation/no_transfer_pubchem_sampling_4_b3lyp/101477451_rwf.rwf
%nprocshared=14
%mem=3GB
#p b3lyp/6-31g(d) 6D 10F nosymm GFInput td=(50-50,nstate=2) SCF=XQC 

Gaussian input prepared by ASE

0 1
C                 6.6761658966       -2.0742122835        0.4609522421
C                 6.2177872374       -1.4631425876       -0.8684833882
C                 5.7817517403        0.0099203986       -0.7729285529
C                 4.5652883741        0.2965385715        0.1250781955
C                 3.2573456491       -0.3540453753       -0.3460211462
C                 2.0486625395        0.0384696240        0.5293196445
C                 0.7898591569       -0.6678103413        0.1148524599
C                -0.4077870344       -0.1641551335       -0.2644692101
C                -1.4467045961       -1.1312242775       -0.6618230020
C                -2.6298314315       -0.8950026846       -1.2558310472
C                -3.6116102800       -1.9747954166       -1.6342582584
C                -4.9782612646       -1.8008746711       -0.9849468402
C                -6.1383556743       -1.7034545986       -1.7613855261
C                -7.3920454429       -1.5558198493       -1.1634333735
C                -7.5021829851       -1.5019168330        0.2259605866
C                -6.3507151472       -1.5950144442        1.0119183573
C                -5.1013830169       -1.7403751583        0.4104194462
C                -0.7263985720        1.3374246778       -0.3447361779
C                -0.1156345309        1.9515740040       -1.6240560584
O                -0.5701019879        1.3016446753       -2.8005374494
C                -0.4193741574        2.1084483529        0.9416485763
C                 0.2616122495        3.3332586883        0.9534331358
C                 0.4690390297        4.0307937036        2.1474020718
C                -0.0062206170        3.5205819105        3.3534800227
C                -0.6922616352        2.3033549620        3.3562477387
C                -0.8939766975        1.6092943065        2.1654819479
H                 5.8650073582       -2.1099447653        1.1972604380
H                 7.4958920268       -1.4924061902        0.9011115204
H                 7.0353731363       -3.1000545077        0.3197669296
H                 7.0403474917       -1.5301534007       -1.5932161779
H                 5.4023641743       -2.0681733492       -1.2871290068
H                 6.6322445116        0.6034228357       -0.4076575384
H                 5.5665384922        0.3800311814       -1.7856333230
H                 4.4204882732        1.3850820208        0.1727915259
H                 4.7760290613       -0.0206618039        1.1559572668
H                 3.3588054734       -1.4480213813       -0.3479059192
H                 3.0577919106       -0.0649229574       -1.3880665536
H                 1.9244105763        1.1239240317        0.5208480318
H                 2.2758058537       -0.2332965942        1.5728902569
H                 0.8786340781       -1.7569460204        0.1134435985
H                -1.1875274102       -2.1732912486       -0.4636104564
H                -2.9330635322        0.1187200961       -1.5082472273
H                -3.1946094318       -2.9552356782       -1.3657578260
H                -3.7441964963       -1.9825109626       -2.7255309820
H                -6.0601853479       -1.7452219420       -2.8457534527
H                -8.2808361519       -1.4816333681       -1.7848887575
H                -8.4761798513       -1.3865652765        0.6940721385
H                -6.4264964248       -1.5523899221        2.0955652765
H                -4.2070776881       -1.8024905139        1.0260194985
H                -1.8107201125        1.4226307528       -0.4803038058
H                 0.9844639141        1.9426000111       -1.5646517295
H                -0.4348323667        2.9929670445       -1.7291454858
H                -0.3466656482        0.3606198533       -2.7144084897
H                 0.6448690680        3.7586302473        0.0312810085
H                 1.0042802672        4.9767435832        2.1277116382
H                 0.1538349821        4.0632247721        4.2812717400
H                -1.0725320475        1.8937781383        4.2886970498
H                -1.4269229416        0.6620820931        2.1799344188



