%chk=./calculation/no_transfer_pubchem_sampling_4_b3lyp/11827289.chk
%nprocshared=7
%mem=6GB
#p b3lyp/6-31g(d) opt SCF=XQC 

Gaussian input prepared by ASE

0 1
C                -1.1291684759       -0.5831628064        2.7236166374
Si               -1.1401099443       -0.5273982770        0.8151438722
C                -0.2941608509       -2.1007937831        0.1399651912
C                -0.1889037614        1.0296007382        0.2182195471
C                 1.3018146317        0.7360160179        0.1393749028
C                 2.1336039872        1.9969434676       -0.0858572635
C                 3.6427951067        1.6860773206       -0.1719408635
O                 4.3910187378        2.7143685635        0.4456236630
C                 3.9419746679        0.3504005545        0.5359695409
C                 5.4168192933        0.2239291951        0.9376906132
C                 6.3007060199        0.1891082373       -0.2768310575
C                 6.3810429417       -0.9626369410       -1.0507980079
C                 7.1691007361       -0.9973807927       -2.1869505676
C                 7.8892356408        0.1227909165       -2.5663779818
C                 7.8169785341        1.2742677830       -1.8016469426
C                 7.0283189678        1.3058317132       -0.6646790169
C                 3.0121213572        0.2275205265        1.7401594267
O                 1.6558694934        0.0962151242        1.3553809531
C                -2.9967790618       -0.4146383170        0.1463687821
C                -3.9106866836       -0.9626236458        1.2189137151
C                -3.6615970790       -2.2261288096        1.7506804970
C                -4.4722952500       -2.7675642142        2.7287648285
C                -5.5629031905       -2.0565537770        3.2017474022
C                -5.8360745931       -0.8105018091        2.6693387824
C                -5.0230403388       -0.2725245716        1.6853076942
C                -3.1022696854       -1.2402216903       -1.1169005766
C                -4.0693365408       -2.2208174071       -1.3001380054
C                -4.1312314599       -2.9505925940       -2.4759490340
C                -3.2352462357       -2.7088925747       -3.5004979108
C                -2.2807133949       -1.7175419054       -3.3424774317
C                -2.2190876654       -0.9946554245       -2.1673216818
C                -3.3268570676        1.0345033678       -0.1388272847
C                -3.1085840433        1.9924074841        0.8499420479
C                -3.3998631872        3.3253222184        0.6358146204
C                -3.9247158113        3.7373266534       -0.5781742206
C                -4.1685765654        2.7959300561       -1.5607434338
C                -3.8787043576        1.4592000873       -1.3415739014
H                -1.2536440367       -1.5980626416        3.0863652027
H                -1.9200055867        0.0123433321        3.1693019525
H                -0.1769449163       -0.2164210156        3.0902094482
H                -0.0881762535       -2.0347553334       -0.9232604630
H                -0.8939448582       -2.9924839098        0.2925119093
H                 0.6492877703       -2.2421300138        0.6554879776
H                -0.3383934023        1.8422567241        0.9270581228
H                -0.5322820521        1.3885250925       -0.7501184995
H                 1.4836890348        0.0406798224       -0.6973624682
H                 1.9703599171        2.6666479511        0.7629051631
H                 1.7901518172        2.5017878779       -0.9901706683
H                 3.9518271357        1.5964107460       -1.2261747197
H                 4.1838351399        3.5456385978        0.0066599219
H                 3.7022218883       -0.4594597457       -0.1607168779
H                 5.6824008618        1.0683392620        1.5723514065
H                 5.5390720922       -0.6991131819        1.5093260873
H                 5.8250772684       -1.8420186134       -0.7562059803
H                 7.2237825405       -1.9008046010       -2.7772554869
H                 8.5056882436        0.0967168457       -3.4530404301
H                 8.3787610617        2.1507514014       -2.0913061789
H                 6.9676280488        2.2055322514       -0.0707899275
H                 3.2422615994       -0.6680446659        2.3250332915
H                 3.1418208835        1.1067619983        2.3875713087
H                -2.8270714330       -2.7986832344        1.3778249409
H                -4.2536158198       -3.7493859295        3.1237559492
H                -6.1966046726       -2.4746566594        3.9698736891
H                -6.6926982034       -0.2500583729        3.0155260162
H                -5.2715561221        0.6951941749        1.2767001563
H                -4.7928520226       -2.4195951116       -0.5241990788
H                -4.8919429793       -3.7094115379       -2.5906978098
H                -3.2840021169       -3.2791037850       -4.4164498800
H                -1.5822520555       -1.5066719015       -4.1400084139
H                -1.4821148123       -0.2116998257       -2.0653392357
H                -2.7199682119        1.6823562788        1.8079447304
H                -3.2192539741        4.0467794003        1.4199624337
H                -4.1502346186        4.7794462074       -0.7506790232
H                -4.5946429645        3.0989958929       -2.5065090637
H                -4.0961600626        0.7442705382       -2.1206040380



