%chk=./calculation/no_transfer_pubchem_sampling_4_b3lyp/16444900.chk
%nprocshared=7
%mem=6GB
#p b3lyp/6-31g(d) opt SCF=XQC 

Gaussian input prepared by ASE

0 1
C                 6.0366373102        3.5307596557       -2.3009012759
C                 4.9245485198        2.5312108989       -2.0133638993
C                 5.3592462433        1.5090035930       -0.9604398091
O                 4.3677833399        0.5356101189       -0.7015740091
C                 3.3122632799        0.8348812140        0.0993227736
C                 3.1076196171        2.0399029343        0.7655413865
C                 1.9973132035        2.2000834563        1.5777220180
C                 1.0772403863        1.1820911552        1.7361704005
C                 1.2618952613       -0.0164120504        1.0551411140
C                 0.3116474213       -1.1485342739        1.2905931978
O                 0.1967670745       -1.6380794759        2.4006703866
N                -0.3715161549       -1.6166984192        0.2154122517
C                -0.4674236659       -0.9087129101       -1.0496629522
C                -1.8255756331       -0.2648591012       -1.1912855009
C                -2.7632900768       -0.7430161574       -2.0981843609
C                -4.0145391230       -0.1594708530       -2.1644199989
C                -4.3547725534        0.8937536320       -1.3331212784
C                -3.4216488006        1.3798266048       -0.4224035983
O                -3.6349651094        2.4059162840        0.4437169760
C                -4.8878219205        3.0477868298        0.4344028875
C                -2.1586918753        0.7923463550       -0.3630058566
C                -1.2887525645       -2.7437095608        0.3771342108
C                -2.4561439568       -2.4269475911        1.3576591295
C                -2.3344809176       -3.2623068256        2.6122228278
S                -1.7704671516       -4.8276914585        1.8999350561
O                -1.1351235508       -5.6976633430        2.8489387679
O                -2.8167743600       -5.3949231861        1.0908723143
C                -0.5597129783       -4.0075490702        0.8183672420
C                 2.3763351073       -0.1900252760        0.2511961396
H                 6.3022129814        4.0797256412       -1.3999473508
H                 6.9252141397        3.0197609519       -2.6640524473
H                 5.7171897922        4.2443901527       -3.0557933163
H                 4.6586550817        1.9951202685       -2.9263625413
H                 4.0321916899        3.0570381032       -1.6677247045
H                 5.6651706228        2.0109736341       -0.0344387747
H                 6.2124379425        0.9364854075       -1.3358684176
H                 3.8070252236        2.8553921011        0.6730920093
H                 1.8559221718        3.1365551744        2.0964516174
H                 0.2233161416        1.3054012228        2.3842471949
H                 0.3087368622       -0.1437700761       -1.0836094295
H                -0.2954397587       -1.6177158364       -1.8659140170
H                -2.5144008979       -1.5627333712       -2.7554965906
H                -4.7427080191       -0.5295989434       -2.8703978978
H                -5.3403881081        1.3247919260       -1.4048158068
H                -4.8260259892        3.8238936013        1.1953815158
H                -5.6962408226        2.3553305473        0.6895777362
H                -5.0956580022        3.5091117462       -0.5362535967
H                -1.4438819374        1.1825152379        0.3450675072
H                -1.7253706084       -2.9157056780       -0.6087545896
H                -2.4561286498       -1.3608817453        1.5858510522
H                -3.3963519659       -2.6715501499        0.8618035331
H                -1.5411708580       -2.9136179465        3.2660533671
H                -3.2700050297       -3.3877106767        3.1444551683
H                 0.2962867817       -3.7888680373        1.4478999121
H                -0.2809513758       -4.6570850092       -0.0036532045
H                 2.5527672193       -1.1238204256       -0.2604854689



