%chk=./calculation/no_transfer_pubchem_sampling_4_b3lyp/23253513.chk
%nprocshared=7
%mem=6GB
#p b3lyp/6-31g(d) opt SCF=XQC 

Gaussian input prepared by ASE

0 1
C                -2.5906210380       -1.1372953697       -2.0263260173
C                -1.3886687537       -1.8649115522       -1.4380182366
C                -0.8188208312       -1.3488619664       -0.1060007788
C                 0.2520030993       -2.3772444595        0.3258625417
O                 0.0868579882       -3.5723332757        0.3360508845
C                 1.4688396745       -1.6478902376        0.6789086155
C                 2.6416723188       -2.1556002273        1.2097565277
C                 3.6731381016       -1.2613293464        1.4849204871
O                 4.7973671739       -1.8026749912        2.0181881956
C                 5.8637636796       -0.9587499726        2.3800082204
C                 3.5190686723        0.0978407384        1.2041328400
C                 2.3390019836        0.5964043626        0.6565531027
O                 2.1246602257        1.8994825670        0.3413136689
C                 3.1230620017        2.8456268706        0.6392236695
C                 1.3018687386       -0.2974484773        0.4039785158
C                -0.0732614531        0.0259104671       -0.1409123399
C                 0.0891683124        0.6320098359       -1.5196129848
C                -0.6283528592        1.7368054782       -1.9553989836
C                -0.4223667190        2.2590627907       -3.2215413338
C                 0.5037700073        1.6872358827       -4.0739713246
C                 1.2290168818        0.5876554346       -3.6482392756
C                 1.0260167737        0.0688341601       -2.3833505023
C                -0.7303960437        0.9830245209        0.8901887114
C                -0.5335360287        0.2520027047        2.2175679930
O                 0.0950644350        0.6736191667        3.1487195014
O                -1.1388694830       -0.9327212989        2.2466134682
C                -1.8757372624       -1.2887522781        1.0464329683
C                -2.5522993223       -2.6171596791        1.3434784057
C                -2.8440613975       -0.1570222075        0.8059924762
C                -4.2266896937       -0.2287941508        0.7640937635
C                -4.9601731020        0.9378724520        0.6273356608
C                -4.3259194175        2.1687079922        0.5650765528
C                -2.9462168278        2.2470331510        0.6329617855
C                -2.2088198663        1.0784250948        0.7344304871
H                -2.7685142438       -1.5134184157       -3.0317330034
H                -2.4144537740       -0.0677119305       -2.0927201641
H                -3.4887109447       -1.3040546009       -1.4406087756
H                -0.5769231842       -1.8348427007       -2.1684799239
H                -1.6417737272       -2.9171595421       -1.2889372192
H                 2.7557472593       -3.2050956288        1.4211966481
H                 6.6193663870       -1.6124477700        2.8126275830
H                 5.5564641144       -0.2199697602        3.1268438261
H                 6.2878810576       -0.4474680075        1.5093080822
H                 4.3258083892        0.7773838785        1.4214248987
H                 4.0461273215        2.6443131345        0.0862123750
H                 3.3332003807        2.8790897321        1.7125337517
H                 2.7192415343        3.8054126409        0.3210564839
H                -1.3593543770        2.2006896173       -1.3145931785
H                -0.9920854760        3.1199696237       -3.5399097352
H                 0.6628311362        2.0961602802       -5.0606466108
H                 1.9595356737        0.1333526222       -4.3015880737
H                 1.6102100669       -0.7810028194       -2.0587046896
H                -0.2215117051        1.9456787327        0.9033727149
H                -3.1951167047       -2.9079584204        0.5187016056
H                -1.8106400649       -3.3939147120        1.5021686922
H                -3.1436294749       -2.5145708496        2.2498606522
H                -4.7367247941       -1.1760931696        0.8424091116
H                -6.0378802634        0.8877012290        0.5875074193
H                -4.9113217853        3.0717068599        0.4777478576
H                -2.4473037706        3.2054857964        0.6165344059



