%chk=calculation/no_transfer_pubchem_sampling_4_b3lyp/70243090_rwf.chk
%rwf=calculation/no_transfer_pubchem_sampling_4_b3lyp/70243090_rwf.rwf
%nprocshared=14
%mem=3GB
#p b3lyp/6-31g(d) 6D 10F nosymm GFInput td=(50-50,nstate=2) SCF=XQC 

Gaussian input prepared by ASE

0 1
C                -3.3859550683        2.4879247003        1.8774932215
C                -2.4077807978        1.8635429600        0.8769755156
C                -3.1220836888        1.2175760322       -0.3165902446
C                -2.1807478645        0.6130358790       -1.3882870131
C                -1.3694245193       -0.5622385593       -0.9012610953
C                -0.0353541256       -0.5454027604       -0.5438141328
C                 0.9059313710        0.5939833193       -0.5861626281
O                 0.5449914676        1.7334800688       -0.8644280871
C                 2.3774493421        0.3188273501       -0.2804747192
C                 3.2211374443        1.5980940072       -0.3378252264
N                 4.6301175353        1.3430970869       -0.0690164097
C                 5.2144626367        1.1209744534        1.1640735795
C                 6.5384551249        0.8653442969        0.9059762035
N                 6.7901590715        0.9191337792       -0.4465450860
C                 5.6281491609        1.2030715194       -0.9950631463
S                 0.5526382203       -2.1400116731       -0.0256837896
C                -1.0226910280       -2.8445862542       -0.2905380037
C                -1.3873865023       -4.1807949066       -0.0889134295
C                -2.6946221254       -4.5564074658       -0.3701509237
C                -3.6289342848       -3.6174710227       -0.8484137772
C                -3.2656259750       -2.2945696752       -1.0448470106
C                -1.9465007337       -1.8807466555       -0.7629031476
H                -2.8558373106        2.9402000687        2.7233718797
H                -4.0769783744        1.7372658153        2.2812817693
H                -3.9902629480        3.2732136087        1.4063871891
H                -1.7083570092        2.6249498745        0.5111546659
H                -1.7959300276        1.1087047596        1.3883649721
H                -3.8117586507        0.4441514056        0.0494048825
H                -3.7447900133        1.9728817947       -0.8159651054
H                -2.7939756122        0.2752590277       -2.2344927318
H                -1.5115819986        1.3914595073       -1.7557521398
H                 2.7672695818       -0.4199135843       -0.9936475199
H                 2.4656413015       -0.1487360662        0.7095627546
H                 2.8472070307        2.3329611630        0.3802027242
H                 3.1408199486        2.0575963851       -1.3257078663
H                 4.6456364789        1.1779819878        2.0808388926
H                 7.3263616581        0.6543231068        1.6168615561
H                 5.4410535706        1.3309015237       -2.0539732019
H                -0.6656934574       -4.9061610326        0.2747541636
H                -2.9980506416       -5.5889648907       -0.2219810668
H                -4.6445442070       -3.9356695393       -1.0651601244
H                -3.9926159810       -1.5782573954       -1.4150293434



