%chk=./calculation/no_transfer_pubchem_sampling_1_b3lyp/112402286.chk
%nprocshared=7
%mem=6GB
#p b3lyp/6-31g(d) opt SCF=XQC 

Gaussian input prepared by ASE

0 1
C                -1.5161061636        0.4769255507        2.7650976559
C                -1.0622775742       -0.9710272767        2.9704044996
N                 0.1157159573       -1.3220876328        2.2108585212
C                 0.1793575531       -1.4478903139        0.8368996666
N                 1.2580219519       -1.5412041204        0.1521099586
C                 2.5505615274       -1.4506216141        0.7675504537
C                 2.9680594404        0.0140895778        1.0686192141
O                 3.9037450064        0.0704234690        2.1235810828
C                 3.4452110446        0.7150582032       -0.1827067551
C                 2.7571333980        0.5616446424       -1.3825441986
C                 3.2265870060        1.2245681588       -2.5029004723
N                 4.2981178910        2.0018780149       -2.5003893242
C                 4.9486024146        2.1466839966       -1.3599703642
C                 4.5692594825        1.5316302693       -0.1769600540
N                -1.0066932241       -1.5174542992        0.1719128803
C                -1.0917501558       -1.8456100094       -1.2265283814
C                -1.3928051725       -0.5995822208       -2.0825249803
C                -2.6291437789        0.0936832775       -1.5952485548
C                -2.5641758978        1.2740319011       -0.8656384659
C                -3.7078990247        1.8790907778       -0.3726301295
C                -4.9499628702        1.3132120311       -0.6034723501
C                -5.0475238874        0.1407607284       -1.3329426838
C                -3.8920497204       -0.4463072742       -1.8108831575
F                -4.0008666653       -1.5948974170       -2.5202072294
H                -2.3949138925        0.6820667244        3.3709306988
H                -0.7246044465        1.1627352116        3.0600102362
H                -1.7616558416        0.6615814289        1.7216614396
H                -1.8745302785       -1.6611664010        2.7197271234
H                -0.8199080505       -1.1286819249        4.0249678659
H                 0.9782871632       -1.0117918124        2.6293063848
H                 3.2661163492       -1.8842135602        0.0594638952
H                 2.6195267208       -2.0208179952        1.7078499402
H                 2.0914499545        0.5600890154        1.4436634307
H                 4.6976620623       -0.4024399764        1.8484257820
H                 1.8899929131       -0.0791216467       -1.4209738205
H                 2.7226870014        1.1314877615       -3.4565561782
H                 5.8187227347        2.7899024294       -1.3961486084
H                 5.1271845454        1.6956653253        0.7327853253
H                -1.8609391459       -1.4974661256        0.6977782086
H                -1.8726296614       -2.5957016631       -1.3792884007
H                -0.1251538891       -2.2574332224       -1.5203482376
H                -0.5456370864        0.0832483895       -2.0204292175
H                -1.5203770002       -0.9158659031       -3.1189092439
H                -1.5973337756        1.7238156751       -0.6914144860
H                -3.6290090285        2.7957579026        0.1921074457
H                -5.8430839210        1.7828083734       -0.2211447720
H                -6.0009729651       -0.3214554259       -1.5349496432



