%chk=calculation/no_transfer_pubchem_sampling_1_b3lyp/14397863_rwf.chk
%rwf=calculation/no_transfer_pubchem_sampling_1_b3lyp/14397863_rwf.rwf
%nprocshared=14
%mem=3GB
#p b3lyp/6-31g(d) 6D 10F nosymm GFInput td=(50-50,nstate=2) SCF=XQC 

Gaussian input prepared by ASE

0 1
C                -3.1103506960       -2.3516217419       -0.7969466994
C                -1.8023660857       -1.8970241371       -0.1354966934
P                -1.2639721022       -0.1721633021       -0.6293035741
C                -2.5472373215        0.8191047527        0.3219515801
C                -2.2907648516        2.3299371596        0.2678279119
N                 0.1570133506       -0.0417123640        0.3388177385
C                 1.2813894325        0.8104470936       -0.0449328031
C                 2.6427469163        0.2348475373        0.3922874516
C                 2.9287043203       -1.1174452991       -0.2709506997
C                 3.7607629311        1.2480859420        0.1093992710
H                -3.3315791283       -3.3962497454       -0.5486014861
H                -3.9652293094       -1.7503124344       -0.4674786012
H                -3.0515874602       -2.2748946631       -1.8889350916
H                -0.9801946588       -2.5577337890       -0.4352169126
H                -1.8828942772       -1.9697885063        0.9590894070
H                -2.5861346050        0.4750071058        1.3667476249
H                -3.5277269895        0.5929908102       -0.1186082000
H                -1.3270556789        2.5857307839        0.7230864141
H                -2.2746151154        2.6932870107       -0.7661051563
H                -3.0682233893        2.8848928091        0.8063402192
H                 0.0378149140       -0.1081708283        1.3476697746
H                 1.2629474066        0.9081828171       -1.1376565884
H                 1.1828366619        1.8317473176        0.3623089331
H                 2.5977529137        0.0783558255        1.4825325385
H                 2.1140998153       -1.8233032110       -0.0837144797
H                 3.8608394713       -1.5543562148        0.1066369258
H                 3.0307390301       -1.0023003954       -1.3583361766
H                 3.5760832655        2.2049337999        0.6129197017
H                 4.7313959510        0.8711279055        0.4515006237
H                 3.8448042887        1.4483979615       -0.9668309532



